25 140 5
0 1 1
0 5 1
0 11 1
0 13 1
0 15 1
0 16 1
0 17 1
0 22 1
0 23 1
1 4 1
1 5 1
1 9 1
1 10 1
1 13 1
1 15 1
1 16 1
1 18 1
1 21 1
1 23 1
1 24 1
2 6 1
2 7 1
2 8 1
2 13 1
2 14 1
2 17 1
2 21 1
2 23 1
3 4 1
3 5 1
3 6 1
3 9 1
3 13 1
3 14 1
3 17 1
3 19 1
3 20 1
3 22 1
3 23 1
4 5 1
4 6 1
4 8 1
4 9 1
4 10 1
4 14 1
4 15 1
4 16 1
4 17 1
4 21 1
4 23 1
5 6 1
5 7 1
5 12 1
5 19 1
5 21 1
5 22 1
5 23 1
5 24 1
6 8 1
6 13 1
6 16 1
6 17 1
6 19 1
6 20 1
6 21 1
6 24 1
7 9 1
7 12 1
7 17 1
7 19 1
7 20 1
7 24 1
8 13 1
8 14 1
8 15 1
8 16 1
8 18 1
8 20 1
8 21 1
8 23 1
8 24 1
9 11 1
9 13 1
9 14 1
9 16 1
9 17 1
9 22 1
9 24 1
10 11 1
10 13 1
10 14 1
10 15 1
10 18 1
10 19 1
10 20 1
11 13 1
11 15 1
11 16 1
11 17 1
11 20 1
11 22 1
11 23 1
12 14 1
12 16 1
12 19 1
12 20 1
12 23 1
12 24 1
13 14 1
13 15 1
13 16 1
13 17 1
13 18 1
13 19 1
13 20 1
13 21 1
13 22 1
13 23 1
13 24 1
14 15 1
14 20 1
15 19 1
15 20 1
15 24 1
16 18 1
16 23 1
17 18 1
17 21 1
17 22 1
17 24 1
18 20 1
18 21 1
18 22 1
19 20 1
19 24 1
20 22 1
20 23 1
20 24 1
22 24 1
23 24 1
0 5 15 18 23
